50
2361 1032 3961 1550 666 4016 9180 8005 7652 2220 5367 2767 1727 1062 2145 9275 8290 8067 8005 1935 3099 6270 7319 8547 8801 868 6059 6718 5060 1778 4736 894 9346 8655 5477 3003 9089 5724 8824 8481 5084 4140 5990 4311 1614 3052 8126 433 464 6264 
3361 2032 4961 2550 1666 5016 10180 9005 8652 3220 6367 3767 2727 2062 3145 10275 9290 9067 9005 2935 4099 7270 8319 9547 9801 1868 7059 7718 6060 2778 5736 1894 10346 9655 6477 4003 10089 6724 9824 9481 6084 5140 6990 5311 2614 4052 9126 1433 1464 7264 
122529
